#######################################################################
#
#                 Cambridge Crystallographic Data Centre
#                                CCDC 
#
#######################################################################
#
# If this CIF has been generated from an entry in the Cambridge 
# Structural Database, then it will include bibliographic, chemical, 
# crystal, experimental, refinement or atomic coordinate data resulting 
# from the CCDC's data processing and validation procedures.
#
#######################################################################

data_ABAFOZ
_audit_creation_date             2004-11-10
_database_code_depnum_ccdc_archive 'CCDC 243847'
_database_code_CSD               ABAFOZ
_chemical_formula_moiety         'C40 H40 N2 O2 Pd1,2(C1 H2 Cl2)'
_chemical_name_systematic        
"(N,N'-Dibenzyl-N,N'-dimethylethylenediamine)-(2,2'-dihydroxy-3,3'-dimethyl-1,1'-binaphthyl)-palladium(ii) dichloromethane solvate"
_journal_coden_Cambridge         579
_journal_volume                  23
_journal_year                    2004
_journal_page_first              3210
_journal_name_full               Organometallics
_journal_paper_doi               10.1021/om0498495
loop_
_publ_author_name
K.A.Pelz
P.S.White
M.R.Gagne
_chemical_absolute_configuration unk
_diffrn_ambient_temperature      173
_exptl_crystal_density_diffrn    1.411
#These two values have been output from a single CSD field.
_refine_ls_R_factor_gt           0.046
_refine_ls_wR_factor_gt          0.046
_diffrn_radiation_probe          x-ray
_symmetry_cell_setting           trigonal
_symmetry_space_group_name_H-M   'P 32'
_symmetry_Int_Tables_number      145
_space_group_name_Hall           'P 32'
loop_
_symmetry_equiv_pos_site_id
_symmetry_equiv_pos_as_xyz
1 x,y,z
2 -y,x-y,2/3+z
3 -x+y,-x,1/3+z
_cell_length_a                   10.4804(6)
_cell_length_b                   10.4804(6)
_cell_length_c                   31.8116(17)
_cell_angle_alpha                90
_cell_angle_beta                 90
_cell_angle_gamma                120
_cell_volume                     3026.02
_cell_formula_units_Z            3
_exptl_crystal_recrystallization_method dichloromethane/hexanes
loop_
_atom_site_label
_atom_site_type_symbol
_atom_site_fract_x
_atom_site_fract_y
_atom_site_fract_z
_atom_site_U_iso_or_equiv
_atom_site_thermal_displace_type
Pd1 Pd 0.53343(4) 0.46662(4) 0.11940 0.0258 Uani
C1 C 0.2068(8) 0.3226(11) 0.1231(3) 0.0720 Uani
N1 N 0.3405(6) 0.4394(6) 0.14479(18) 0.0396 Uani
C2 C 0.3490(10) 0.5854(10) 0.14007(23) 0.0600 Uani
C3 C 0.4153(9) 0.6515(10) 0.09811(23) 0.0578 Uani
N2 N 0.5596(7) 0.6595(6) 0.09416(17) 0.0394 Uani
C4 C 0.6744(11) 0.7927(8) 0.1159(3) 0.0657 Uani
O1 O 0.7430(4) 0.5254(4) 0.10336(12) 0.0262 Uani
O2 O 0.4747(4) 0.2562(4) 0.13527(12) 0.0277 Uani
C5 C 0.3284(6) 0.3946(7) 0.18942(23) 0.0423 Uani
C6 C 0.4487(6) 0.5050(6) 0.21770(18) 0.0281 Uani
C7 C 0.5827(7) 0.5113(7) 0.22004(20) 0.0342 Uani
C8 C 0.6947(7) 0.6156(8) 0.24459(21) 0.0427 Uani
C9 C 0.6728(7) 0.7166(7) 0.26735(21) 0.0450 Uani
C10 C 0.5374(7) 0.7091(7) 0.26591(21) 0.0382 Uani
C11 C 0.4274(7) 0.6057(7) 0.24136(19) 0.0346 Uani
C12 C 0.6065(7) 0.6718(6) 0.04904(21) 0.0398 Uani
C13 C 0.4941(6) 0.5510(6) 0.02065(18) 0.0292 Uani
C14 C 0.3956(7) 0.5735(7) -0.00263(19) 0.0336 Uani
C15 C 0.2900(8) 0.4617(8) -0.02751(21) 0.0411 Uani
C16 C 0.2836(7) 0.3284(7) -0.02835(21) 0.0443 Uani
C17 C 0.3821(8) 0.3050(7) -0.00602(21) 0.0436 Uani
C18 C 0.4893(7) 0.4175(7) 0.01886(20) 0.0334 Uani
C19 C 0.5192(6) 0.1934(6) 0.10594(18) 0.0252 Uani
C20 C 0.6655(5) 0.2288(5) 0.10359(17) 0.0198 Uani
C21 C 0.7138(6) 0.1691(6) 0.07077(17) 0.0244 Uani
C22 C 0.8632(6) 0.2064(6) 0.06615(18) 0.0302 Uani
C23 C 0.9071(7) 0.1496(7) 0.03410(22) 0.0416 Uani
C24 C 0.8056(8) 0.0586(7) 0.00439(20) 0.0406 Uani
C25 C 0.6628(7) 0.0205(6) 0.00662(18) 0.0348 Uani
C26 C 0.6099(7) 0.0720(6) 0.04076(18) 0.0263 Uani
C27 C 0.4608(7) 0.0300(6) 0.04639(19) 0.0289 Uani
C28 C 0.4126(6) 0.0850(6) 0.07756(19) 0.0279 Uani
C29 C 0.2529(7) 0.0398(7) 0.0816(3) 0.0503 Uani
C30 C 0.8077(6) 0.4808(6) 0.13305(18) 0.0253 Uani
C31 C 0.7719(6) 0.3346(6) 0.13467(17) 0.0210 Uani
C32 C 0.8304(5) 0.2857(6) 0.16771(16) 0.0234 Uani
C33 C 0.7928(6) 0.1364(6) 0.17235(19) 0.0310 Uani
C34 C 0.8504(7) 0.0924(7) 0.20477(21) 0.0393 Uani
C35 C 0.9418(7) 0.1946(8) 0.23441(21) 0.0437 Uani
C36 C 0.9783(6) 0.3371(7) 0.23160(19) 0.0368 Uani
C37 C 0.9281(6) 0.3904(7) 0.19810(18) 0.0272 Uani
C38 C 0.9704(6) 0.5394(7) 0.19257(19) 0.0304 Uani
C39 C 0.9137(6) 0.5857(6) 0.16125(19) 0.0292 Uani
C40 C 0.9603(7) 0.7459(7) 0.15726(24) 0.0473 Uani
H1 H 0.202 0.229 0.124 0.0842 Uiso
H2 H 0.122 0.316 0.137 0.0842 Uiso
H3 H 0.209 0.351 0.094 0.0842 Uiso
H4 H 0.409 0.651 0.162 0.0882 Uiso
H5 H 0.251 0.571 0.142 0.0882 Uiso
H6 H 0.425 0.747 0.095 0.0832 Uiso
H7 H 0.351 0.586 0.077 0.0832 Uiso
H8 H 0.769 0.801 0.113 0.0768 Uiso
H9 H 0.676 0.878 0.104 0.0768 Uiso
H10 H 0.651 0.785 0.145 0.0768 Uiso
H11 H 0.236 0.381 0.199 0.0532 Uiso
H12 H 0.328 0.303 0.191 0.0532 Uiso
H13 H 0.595 0.438 0.206 0.0451 Uiso
H14 H 0.789 0.621 0.245 0.0559 Uiso
H15 H 0.751 0.790 0.284 0.0515 Uiso
H16 H 0.521 0.779 0.281 0.0519 Uiso
H17 H 0.333 0.599 0.241 0.0461 Uiso
H18 H 0.698 0.671 0.048 0.0500 Uiso
H19 H 0.621 0.763 0.038 0.0500 Uiso
H20 H 0.400 0.667 -0.002 0.0450 Uiso
H21 H 0.224 0.478 -0.044 0.0542 Uiso
H22 H 0.207 0.249 -0.044 0.0505 Uiso
H23 H 0.377 0.211 -0.007 0.0549 Uiso
H24 H 0.560 0.402 0.034 0.0452 Uiso
H25 H 0.933 0.269 0.087 0.0421 Uiso
H26 H 1.009 0.178 0.032 0.0518 Uiso
H27 H 0.837 0.018 -0.018 0.0523 Uiso
H28 H 0.595 -0.038 -0.015 0.0437 Uiso
H29 H 0.388 -0.042 0.028 0.0370 Uiso
H30 H 0.243 0.092 0.105 0.0553 Uiso
H31 H 0.217 0.062 0.057 0.0553 Uiso
H32 H 0.197 -0.064 0.087 0.0553 Uiso
H33 H 0.730 0.066 0.152 0.0437 Uiso
H34 H 0.824 -0.009 0.208 0.0505 Uiso
H35 H 0.978 0.163 0.257 0.0553 Uiso
H36 H 1.043 0.405 0.252 0.0464 Uiso
H37 H 1.038 0.611 0.212 0.0393 Uiso
H38 H 0.914 0.762 0.134 0.0524 Uiso
H39 H 0.931 0.774 0.182 0.0524 Uiso
H40 H 1.065 0.804 0.154 0.0524 Uiso
C41 C 0.5994(9) 0.0753(8) 0.3567(3) 0.0548 Uani
Cl1 Cl 0.52493(24) -0.09988(22) 0.37954(8) 0.0703 Uani
Cl2 Cl 0.7195(3) 0.1031(3) 0.31553(8) 0.0865 Uani
H41 H 0.651 0.149 0.378 0.0500 Uiso
H42 H 0.520 0.086 0.346 0.0500 Uiso
C42 C 0.4744(8) 0.0752(8) 0.21500(24) 0.0520 Uani
Cl3 Cl 0.3841(3) 0.1039(3) 0.25664(8) 0.0851 Uani
Cl4 Cl 0.3752(3) -0.09991(22) 0.19264(8) 0.0693 Uani
H43 H 0.567 0.088 0.225 0.0456 Uiso
H44 H 0.494 0.147 0.194 0.0455 Uiso
loop_
_atom_site_aniso_label
_atom_site_aniso_U_11
_atom_site_aniso_U_22
_atom_site_aniso_U_33
_atom_site_aniso_U_23
_atom_site_aniso_U_13
_atom_site_aniso_U_12
Pd1 0.03223(25) 0.03202(25) 0.02089(21) -0.00569(18) -0.00581(18) 0.02180(20)
C1 0.034(4) 0.125(7) 0.064(6) -0.057(5) -0.021(4) 0.045(4)
N1 0.038(3) 0.059(3) 0.032(3) -0.020(3) -0.0125(24) 0.032(3)
C2 0.100(6) 0.102(6) 0.032(4) -0.018(4) -0.016(4) 0.091(6)
C3 0.090(6) 0.101(6) 0.028(4) -0.018(4) -0.019(4) 0.082(5)
N2 0.064(4) 0.039(3) 0.033(3) -0.0111(24) -0.020(3) 0.039(3)
C4 0.109(7) 0.035(4) 0.057(5) -0.021(3) -0.044(5) 0.039(4)
O1 0.0298(19) 0.0253(19) 0.0240(22) 0.0060(16) 0.0027(16) 0.0141(16)
O2 0.0295(20) 0.0288(19) 0.0262(22) 0.0028(16) 0.0078(16) 0.0156(17)
C5 0.028(3) 0.050(4) 0.051(5) -0.017(3) -0.003(3) 0.021(3)
C6 0.031(3) 0.036(3) 0.019(3) -0.0027(25) 0.0030(24) 0.018(3)
C7 0.040(3) 0.038(3) 0.028(4) 0.003(3) -0.001(3) 0.022(3)
C8 0.045(4) 0.065(4) 0.028(4) -0.003(3) -0.006(3) 0.035(3)
C9 0.051(4) 0.047(4) 0.027(4) -0.004(3) -0.008(3) 0.017(3)
C10 0.054(4) 0.044(4) 0.028(4) -0.004(3) 0.001(3) 0.033(3)
C11 0.042(3) 0.046(3) 0.021(3) -0.002(3) 0.002(3) 0.026(3)
C12 0.047(4) 0.031(3) 0.042(4) -0.002(3) -0.014(3) 0.020(3)
C13 0.038(3) 0.030(3) 0.021(3) 0.0039(24) 0.006(3) 0.018(3)
C14 0.046(3) 0.037(3) 0.022(3) 0.000(3) 0.002(3) 0.024(3)
C15 0.049(4) 0.058(4) 0.026(4) 0.000(3) -0.001(3) 0.034(4)
C16 0.045(4) 0.047(4) 0.029(4) -0.009(3) -0.003(3) 0.014(3)
C17 0.069(5) 0.042(4) 0.024(4) -0.006(3) -0.002(3) 0.031(3)
C18 0.043(3) 0.039(3) 0.023(3) -0.003(3) -0.002(3) 0.024(3)
C19 0.033(3) 0.025(3) 0.018(3) -0.0037(22) -0.0051(23) 0.0147(24)
C20 0.022(3) 0.0187(24) 0.020(3) 0.0003(21) 0.0000(22) 0.0112(21)
C21 0.029(3) 0.024(3) 0.018(3) -0.0004(21) -0.0047(22) 0.0116(23)
C22 0.035(3) 0.037(3) 0.024(3) 0.0007(25) 0.0047(24) 0.022(3)
C23 0.042(3) 0.053(4) 0.030(4) 0.003(3) 0.009(3) 0.024(3)
C24 0.065(4) 0.043(4) 0.019(3) -0.001(3) 0.015(3) 0.031(3)
C25 0.059(4) 0.027(3) 0.015(3) -0.0019(23) -0.003(3) 0.019(3)
C26 0.040(3) 0.023(3) 0.016(3) -0.0012(22) -0.0028(24) 0.0159(24)
C27 0.033(3) 0.018(3) 0.030(4) -0.0029(24) -0.014(3) 0.0085(24)
C28 0.027(3) 0.020(3) 0.029(3) -0.0004(24) -0.010(3) 0.0059(23)
C29 0.030(3) 0.040(4) 0.067(5) -0.010(3) -0.012(3) 0.007(3)
C30 0.026(3) 0.024(3) 0.022(3) -0.0042(23) 0.0025(23) 0.0096(23)
C31 0.022(3) 0.023(3) 0.021(3) 0.0029(22) -0.0001(22) 0.0135(22)
C32 0.023(3) 0.030(3) 0.015(3) -0.0009(22) 0.0005(21) 0.0116(23)
C33 0.038(3) 0.033(3) 0.029(3) 0.005(3) 0.003(3) 0.023(3)
C34 0.048(4) 0.043(3) 0.030(4) 0.010(3) 0.003(3) 0.025(3)
C35 0.046(4) 0.067(5) 0.023(4) 0.015(3) 0.003(3) 0.032(4)
C36 0.028(3) 0.059(4) 0.021(3) -0.003(3) -0.0007(25) 0.020(3)
C37 0.023(3) 0.041(3) 0.019(3) -0.0084(25) -0.0053(22) 0.0170(25)
C38 0.021(3) 0.041(4) 0.026(3) -0.011(3) -0.0019(24) 0.013(3)
C39 0.022(3) 0.027(3) 0.032(4) -0.007(3) 0.0043(24) 0.0074(23)
C40 0.041(4) 0.028(3) 0.058(5) -0.010(3) -0.010(3) 0.006(3)
C41 0.061(5) 0.050(4) 0.051(5) -0.003(3) 0.011(4) 0.026(4)
Cl1 0.0675(13) 0.0481(11) 0.0807(17) -0.0022(10) 0.0075(11) 0.0179(10)
Cl2 0.0729(14) 0.0873(15) 0.0679(16) -0.0247(13) 0.0254(11) 0.0164(12)
C42 0.063(4) 0.056(4) 0.040(5) 0.010(3) 0.017(4) 0.032(4)
Cl3 0.1225(20) 0.0874(15) 0.0655(16) 0.0247(13) 0.0474(15) 0.0675(16)
Cl4 0.0753(14) 0.0452(10) 0.0839(17) 0.0034(10) 0.0106(12) 0.0274(10)
loop_
_geom_bond_atom_site_label_1
_geom_bond_atom_site_label_2
_geom_bond_site_symmetry_1
_geom_bond_site_symmetry_2
Pd1 N1 1_555 1_555
C1 N1 1_555 1_555
N1 C2 1_555 1_555
C2 C3 1_555 1_555
C3 N2 1_555 1_555
N2 Pd1 1_555 1_555
C4 N2 1_555 1_555
O1 Pd1 1_555 1_555
O2 Pd1 1_555 1_555
C5 N1 1_555 1_555
C6 C5 1_555 1_555
C7 C6 1_555 1_555
C8 C7 1_555 1_555
C9 C8 1_555 1_555
C10 C9 1_555 1_555
C11 C6 1_555 1_555
C12 N2 1_555 1_555
C13 C12 1_555 1_555
C14 C13 1_555 1_555
C15 C14 1_555 1_555
C16 C15 1_555 1_555
C17 C16 1_555 1_555
C18 C13 1_555 1_555
C19 O2 1_555 1_555
C20 C19 1_555 1_555
C21 C20 1_555 1_555
C22 C21 1_555 1_555
C23 C22 1_555 1_555
C24 C23 1_555 1_555
C25 C24 1_555 1_555
C26 C21 1_555 1_555
C27 C26 1_555 1_555
C28 C19 1_555 1_555
C29 C28 1_555 1_555
C30 O1 1_555 1_555
C31 C20 1_555 1_555
C32 C31 1_555 1_555
C33 C32 1_555 1_555
C34 C33 1_555 1_555
C35 C34 1_555 1_555
C36 C35 1_555 1_555
C37 C32 1_555 1_555
C38 C37 1_555 1_555
C39 C30 1_555 1_555
C40 C39 1_555 1_555
H1 C1 1_555 1_555
H2 C1 1_555 1_555
H3 C1 1_555 1_555
H4 C2 1_555 1_555
H5 C2 1_555 1_555
H6 C3 1_555 1_555
H7 C3 1_555 1_555
H8 C4 1_555 1_555
H9 C4 1_555 1_555
H10 C4 1_555 1_555
H11 C5 1_555 1_555
H12 C5 1_555 1_555
H13 C7 1_555 1_555
H14 C8 1_555 1_555
H15 C9 1_555 1_555
H16 C10 1_555 1_555
H17 C11 1_555 1_555
H18 C12 1_555 1_555
H19 C12 1_555 1_555
H20 C14 1_555 1_555
H21 C15 1_555 1_555
H22 C16 1_555 1_555
H23 C17 1_555 1_555
H24 C18 1_555 1_555
H25 C22 1_555 1_555
H26 C23 1_555 1_555
H27 C24 1_555 1_555
H28 C25 1_555 1_555
H29 C27 1_555 1_555
H30 C29 1_555 1_555
H31 C29 1_555 1_555
H32 C29 1_555 1_555
H33 C33 1_555 1_555
H34 C34 1_555 1_555
H35 C35 1_555 1_555
H36 C36 1_555 1_555
H37 C38 1_555 1_555
H38 C40 1_555 1_555
H39 C40 1_555 1_555
H40 C40 1_555 1_555
C41 Cl1 1_555 1_555
Cl2 C41 1_555 1_555
H41 C41 1_555 1_555
H42 C41 1_555 1_555
C42 Cl3 1_555 1_555
Cl4 C42 1_555 1_555
H43 C42 1_555 1_555
H44 C42 1_555 1_555
C10 C11 1_555 1_555
C17 C18 1_555 1_555
C25 C26 1_555 1_555
C27 C28 1_555 1_555
C30 C31 1_555 1_555
C36 C37 1_555 1_555
C38 C39 1_555 1_555

#END
